c created by edge2cnf
p cnf 500 3100
-1 -2 0
-1 -3 0
-1 -4 0
-1 -5 0
-2 -3 0
-2 -4 0
-2 -5 0
-3 -4 0
-3 -5 0
-4 -5 0
1 2 3 4 5 0
-6 -7 0
-6 -8 0
-6 -9 0
-6 -10 0
-7 -8 0
-7 -9 0
-7 -10 0
-8 -9 0
-8 -10 0
-9 -10 0
6 7 8 9 10 0
-11 -12 0
-11 -13 0
-11 -14 0
-11 -15 0
-12 -13 0
-12 -14 0
-12 -15 0
-13 -14 0
-13 -15 0
-14 -15 0
11 12 13 14 15 0
-16 -17 0
-16 -18 0
-16 -19 0
-16 -20 0
-17 -18 0
-17 -19 0
-17 -20 0
-18 -19 0
-18 -20 0
-19 -20 0
16 17 18 19 20 0
-21 -22 0
-21 -23 0
-21 -24 0
-21 -25 0
-22 -23 0
-22 -24 0
-22 -25 0
-23 -24 0
-23 -25 0
-24 -25 0
21 22 23 24 25 0
-26 -27 0
-26 -28 0
-26 -29 0
-26 -30 0
-27 -28 0
-27 -29 0
-27 -30 0
-28 -29 0
-28 -30 0
-29 -30 0
26 27 28 29 30 0
-31 -32 0
-31 -33 0
-31 -34 0
-31 -35 0
-32 -33 0
-32 -34 0
-32 -35 0
-33 -34 0
-33 -35 0
-34 -35 0
31 32 33 34 35 0
-36 -37 0
-36 -38 0
-36 -39 0
-36 -40 0
-37 -38 0
-37 -39 0
-37 -40 0
-38 -39 0
-38 -40 0
-39 -40 0
36 37 38 39 40 0
-41 -42 0
-41 -43 0
-41 -44 0
-41 -45 0
-42 -43 0
-42 -44 0
-42 -45 0
-43 -44 0
-43 -45 0
-44 -45 0
41 42 43 44 45 0
-46 -47 0
-46 -48 0
-46 -49 0
-46 -50 0
-47 -48 0
-47 -49 0
-47 -50 0
-48 -49 0
-48 -50 0
-49 -50 0
46 47 48 49 50 0
-51 -52 0
-51 -53 0
-51 -54 0
-51 -55 0
-52 -53 0
-52 -54 0
-52 -55 0
-53 -54 0
-53 -55 0
-54 -55 0
51 52 53 54 55 0
-56 -57 0
-56 -58 0
-56 -59 0
-56 -60 0
-57 -58 0
-57 -59 0
-57 -60 0
-58 -59 0
-58 -60 0
-59 -60 0
56 57 58 59 60 0
-61 -62 0
-61 -63 0
-61 -64 0
-61 -65 0
-62 -63 0
-62 -64 0
-62 -65 0
-63 -64 0
-63 -65 0
-64 -65 0
61 62 63 64 65 0
-66 -67 0
-66 -68 0
-66 -69 0
-66 -70 0
-67 -68 0
-67 -69 0
-67 -70 0
-68 -69 0
-68 -70 0
-69 -70 0
66 67 68 69 70 0
-71 -72 0
-71 -73 0
-71 -74 0
-71 -75 0
-72 -73 0
-72 -74 0
-72 -75 0
-73 -74 0
-73 -75 0
-74 -75 0
71 72 73 74 75 0
-76 -77 0
-76 -78 0
-76 -79 0
-76 -80 0
-77 -78 0
-77 -79 0
-77 -80 0
-78 -79 0
-78 -80 0
-79 -80 0
76 77 78 79 80 0
-81 -82 0
-81 -83 0
-81 -84 0
-81 -85 0
-82 -83 0
-82 -84 0
-82 -85 0
-83 -84 0
-83 -85 0
-84 -85 0
81 82 83 84 85 0
-86 -87 0
-86 -88 0
-86 -89 0
-86 -90 0
-87 -88 0
-87 -89 0
-87 -90 0
-88 -89 0
-88 -90 0
-89 -90 0
86 87 88 89 90 0
-91 -92 0
-91 -93 0
-91 -94 0
-91 -95 0
-92 -93 0
-92 -94 0
-92 -95 0
-93 -94 0
-93 -95 0
-94 -95 0
91 92 93 94 95 0
-96 -97 0
-96 -98 0
-96 -99 0
-96 -100 0
-97 -98 0
-97 -99 0
-97 -100 0
-98 -99 0
-98 -100 0
-99 -100 0
96 97 98 99 100 0
-101 -102 0
-101 -103 0
-101 -104 0
-101 -105 0
-102 -103 0
-102 -104 0
-102 -105 0
-103 -104 0
-103 -105 0
-104 -105 0
101 102 103 104 105 0
-106 -107 0
-106 -108 0
-106 -109 0
-106 -110 0
-107 -108 0
-107 -109 0
-107 -110 0
-108 -109 0
-108 -110 0
-109 -110 0
106 107 108 109 110 0
-111 -112 0
-111 -113 0
-111 -114 0
-111 -115 0
-112 -113 0
-112 -114 0
-112 -115 0
-113 -114 0
-113 -115 0
-114 -115 0
111 112 113 114 115 0
-116 -117 0
-116 -118 0
-116 -119 0
-116 -120 0
-117 -118 0
-117 -119 0
-117 -120 0
-118 -119 0
-118 -120 0
-119 -120 0
116 117 118 119 120 0
-121 -122 0
-121 -123 0
-121 -124 0
-121 -125 0
-122 -123 0
-122 -124 0
-122 -125 0
-123 -124 0
-123 -125 0
-124 -125 0
121 122 123 124 125 0
-126 -127 0
-126 -128 0
-126 -129 0
-126 -130 0
-127 -128 0
-127 -129 0
-127 -130 0
-128 -129 0
-128 -130 0
-129 -130 0
126 127 128 129 130 0
-131 -132 0
-131 -133 0
-131 -134 0
-131 -135 0
-132 -133 0
-132 -134 0
-132 -135 0
-133 -134 0
-133 -135 0
-134 -135 0
131 132 133 134 135 0
-136 -137 0
-136 -138 0
-136 -139 0
-136 -140 0
-137 -138 0
-137 -139 0
-137 -140 0
-138 -139 0
-138 -140 0
-139 -140 0
136 137 138 139 140 0
-141 -142 0
-141 -143 0
-141 -144 0
-141 -145 0
-142 -143 0
-142 -144 0
-142 -145 0
-143 -144 0
-143 -145 0
-144 -145 0
141 142 143 144 145 0
-146 -147 0
-146 -148 0
-146 -149 0
-146 -150 0
-147 -148 0
-147 -149 0
-147 -150 0
-148 -149 0
-148 -150 0
-149 -150 0
146 147 148 149 150 0
-151 -152 0
-151 -153 0
-151 -154 0
-151 -155 0
-152 -153 0
-152 -154 0
-152 -155 0
-153 -154 0
-153 -155 0
-154 -155 0
151 152 153 154 155 0
-156 -157 0
-156 -158 0
-156 -159 0
-156 -160 0
-157 -158 0
-157 -159 0
-157 -160 0
-158 -159 0
-158 -160 0
-159 -160 0
156 157 158 159 160 0
-161 -162 0
-161 -163 0
-161 -164 0
-161 -165 0
-162 -163 0
-162 -164 0
-162 -165 0
-163 -164 0
-163 -165 0
-164 -165 0
161 162 163 164 165 0
-166 -167 0
-166 -168 0
-166 -169 0
-166 -170 0
-167 -168 0
-167 -169 0
-167 -170 0
-168 -169 0
-168 -170 0
-169 -170 0
166 167 168 169 170 0
-171 -172 0
-171 -173 0
-171 -174 0
-171 -175 0
-172 -173 0
-172 -174 0
-172 -175 0
-173 -174 0
-173 -175 0
-174 -175 0
171 172 173 174 175 0
-176 -177 0
-176 -178 0
-176 -179 0
-176 -180 0
-177 -178 0
-177 -179 0
-177 -180 0
-178 -179 0
-178 -180 0
-179 -180 0
176 177 178 179 180 0
-181 -182 0
-181 -183 0
-181 -184 0
-181 -185 0
-182 -183 0
-182 -184 0
-182 -185 0
-183 -184 0
-183 -185 0
-184 -185 0
181 182 183 184 185 0
-186 -187 0
-186 -188 0
-186 -189 0
-186 -190 0
-187 -188 0
-187 -189 0
-187 -190 0
-188 -189 0
-188 -190 0
-189 -190 0
186 187 188 189 190 0
-191 -192 0
-191 -193 0
-191 -194 0
-191 -195 0
-192 -193 0
-192 -194 0
-192 -195 0
-193 -194 0
-193 -195 0
-194 -195 0
191 192 193 194 195 0
-196 -197 0
-196 -198 0
-196 -199 0
-196 -200 0
-197 -198 0
-197 -199 0
-197 -200 0
-198 -199 0
-198 -200 0
-199 -200 0
196 197 198 199 200 0
-201 -202 0
-201 -203 0
-201 -204 0
-201 -205 0
-202 -203 0
-202 -204 0
-202 -205 0
-203 -204 0
-203 -205 0
-204 -205 0
201 202 203 204 205 0
-206 -207 0
-206 -208 0
-206 -209 0
-206 -210 0
-207 -208 0
-207 -209 0
-207 -210 0
-208 -209 0
-208 -210 0
-209 -210 0
206 207 208 209 210 0
-211 -212 0
-211 -213 0
-211 -214 0
-211 -215 0
-212 -213 0
-212 -214 0
-212 -215 0
-213 -214 0
-213 -215 0
-214 -215 0
211 212 213 214 215 0
-216 -217 0
-216 -218 0
-216 -219 0
-216 -220 0
-217 -218 0
-217 -219 0
-217 -220 0
-218 -219 0
-218 -220 0
-219 -220 0
216 217 218 219 220 0
-221 -222 0
-221 -223 0
-221 -224 0
-221 -225 0
-222 -223 0
-222 -224 0
-222 -225 0
-223 -224 0
-223 -225 0
-224 -225 0
221 222 223 224 225 0
-226 -227 0
-226 -228 0
-226 -229 0
-226 -230 0
-227 -228 0
-227 -229 0
-227 -230 0
-228 -229 0
-228 -230 0
-229 -230 0
226 227 228 229 230 0
-231 -232 0
-231 -233 0
-231 -234 0
-231 -235 0
-232 -233 0
-232 -234 0
-232 -235 0
-233 -234 0
-233 -235 0
-234 -235 0
231 232 233 234 235 0
-236 -237 0
-236 -238 0
-236 -239 0
-236 -240 0
-237 -238 0
-237 -239 0
-237 -240 0
-238 -239 0
-238 -240 0
-239 -240 0
236 237 238 239 240 0
-241 -242 0
-241 -243 0
-241 -244 0
-241 -245 0
-242 -243 0
-242 -244 0
-242 -245 0
-243 -244 0
-243 -245 0
-244 -245 0
241 242 243 244 245 0
-246 -247 0
-246 -248 0
-246 -249 0
-246 -250 0
-247 -248 0
-247 -249 0
-247 -250 0
-248 -249 0
-248 -250 0
-249 -250 0
246 247 248 249 250 0
-251 -252 0
-251 -253 0
-251 -254 0
-251 -255 0
-252 -253 0
-252 -254 0
-252 -255 0
-253 -254 0
-253 -255 0
-254 -255 0
251 252 253 254 255 0
-256 -257 0
-256 -258 0
-256 -259 0
-256 -260 0
-257 -258 0
-257 -259 0
-257 -260 0
-258 -259 0
-258 -260 0
-259 -260 0
256 257 258 259 260 0
-261 -262 0
-261 -263 0
-261 -264 0
-261 -265 0
-262 -263 0
-262 -264 0
-262 -265 0
-263 -264 0
-263 -265 0
-264 -265 0
261 262 263 264 265 0
-266 -267 0
-266 -268 0
-266 -269 0
-266 -270 0
-267 -268 0
-267 -269 0
-267 -270 0
-268 -269 0
-268 -270 0
-269 -270 0
266 267 268 269 270 0
-271 -272 0
-271 -273 0
-271 -274 0
-271 -275 0
-272 -273 0
-272 -274 0
-272 -275 0
-273 -274 0
-273 -275 0
-274 -275 0
271 272 273 274 275 0
-276 -277 0
-276 -278 0
-276 -279 0
-276 -280 0
-277 -278 0
-277 -279 0
-277 -280 0
-278 -279 0
-278 -280 0
-279 -280 0
276 277 278 279 280 0
-281 -282 0
-281 -283 0
-281 -284 0
-281 -285 0
-282 -283 0
-282 -284 0
-282 -285 0
-283 -284 0
-283 -285 0
-284 -285 0
281 282 283 284 285 0
-286 -287 0
-286 -288 0
-286 -289 0
-286 -290 0
-287 -288 0
-287 -289 0
-287 -290 0
-288 -289 0
-288 -290 0
-289 -290 0
286 287 288 289 290 0
-291 -292 0
-291 -293 0
-291 -294 0
-291 -295 0
-292 -293 0
-292 -294 0
-292 -295 0
-293 -294 0
-293 -295 0
-294 -295 0
291 292 293 294 295 0
-296 -297 0
-296 -298 0
-296 -299 0
-296 -300 0
-297 -298 0
-297 -299 0
-297 -300 0
-298 -299 0
-298 -300 0
-299 -300 0
296 297 298 299 300 0
-301 -302 0
-301 -303 0
-301 -304 0
-301 -305 0
-302 -303 0
-302 -304 0
-302 -305 0
-303 -304 0
-303 -305 0
-304 -305 0
301 302 303 304 305 0
-306 -307 0
-306 -308 0
-306 -309 0
-306 -310 0
-307 -308 0
-307 -309 0
-307 -310 0
-308 -309 0
-308 -310 0
-309 -310 0
306 307 308 309 310 0
-311 -312 0
-311 -313 0
-311 -314 0
-311 -315 0
-312 -313 0
-312 -314 0
-312 -315 0
-313 -314 0
-313 -315 0
-314 -315 0
311 312 313 314 315 0
-316 -317 0
-316 -318 0
-316 -319 0
-316 -320 0
-317 -318 0
-317 -319 0
-317 -320 0
-318 -319 0
-318 -320 0
-319 -320 0
316 317 318 319 320 0
-321 -322 0
-321 -323 0
-321 -324 0
-321 -325 0
-322 -323 0
-322 -324 0
-322 -325 0
-323 -324 0
-323 -325 0
-324 -325 0
321 322 323 324 325 0
-326 -327 0
-326 -328 0
-326 -329 0
-326 -330 0
-327 -328 0
-327 -329 0
-327 -330 0
-328 -329 0
-328 -330 0
-329 -330 0
326 327 328 329 330 0
-331 -332 0
-331 -333 0
-331 -334 0
-331 -335 0
-332 -333 0
-332 -334 0
-332 -335 0
-333 -334 0
-333 -335 0
-334 -335 0
331 332 333 334 335 0
-336 -337 0
-336 -338 0
-336 -339 0
-336 -340 0
-337 -338 0
-337 -339 0
-337 -340 0
-338 -339 0
-338 -340 0
-339 -340 0
336 337 338 339 340 0
-341 -342 0
-341 -343 0
-341 -344 0
-341 -345 0
-342 -343 0
-342 -344 0
-342 -345 0
-343 -344 0
-343 -345 0
-344 -345 0
341 342 343 344 345 0
-346 -347 0
-346 -348 0
-346 -349 0
-346 -350 0
-347 -348 0
-347 -349 0
-347 -350 0
-348 -349 0
-348 -350 0
-349 -350 0
346 347 348 349 350 0
-351 -352 0
-351 -353 0
-351 -354 0
-351 -355 0
-352 -353 0
-352 -354 0
-352 -355 0
-353 -354 0
-353 -355 0
-354 -355 0
351 352 353 354 355 0
-356 -357 0
-356 -358 0
-356 -359 0
-356 -360 0
-357 -358 0
-357 -359 0
-357 -360 0
-358 -359 0
-358 -360 0
-359 -360 0
356 357 358 359 360 0
-361 -362 0
-361 -363 0
-361 -364 0
-361 -365 0
-362 -363 0
-362 -364 0
-362 -365 0
-363 -364 0
-363 -365 0
-364 -365 0
361 362 363 364 365 0
-366 -367 0
-366 -368 0
-366 -369 0
-366 -370 0
-367 -368 0
-367 -369 0
-367 -370 0
-368 -369 0
-368 -370 0
-369 -370 0
366 367 368 369 370 0
-371 -372 0
-371 -373 0
-371 -374 0
-371 -375 0
-372 -373 0
-372 -374 0
-372 -375 0
-373 -374 0
-373 -375 0
-374 -375 0
371 372 373 374 375 0
-376 -377 0
-376 -378 0
-376 -379 0
-376 -380 0
-377 -378 0
-377 -379 0
-377 -380 0
-378 -379 0
-378 -380 0
-379 -380 0
376 377 378 379 380 0
-381 -382 0
-381 -383 0
-381 -384 0
-381 -385 0
-382 -383 0
-382 -384 0
-382 -385 0
-383 -384 0
-383 -385 0
-384 -385 0
381 382 383 384 385 0
-386 -387 0
-386 -388 0
-386 -389 0
-386 -390 0
-387 -388 0
-387 -389 0
-387 -390 0
-388 -389 0
-388 -390 0
-389 -390 0
386 387 388 389 390 0
-391 -392 0
-391 -393 0
-391 -394 0
-391 -395 0
-392 -393 0
-392 -394 0
-392 -395 0
-393 -394 0
-393 -395 0
-394 -395 0
391 392 393 394 395 0
-396 -397 0
-396 -398 0
-396 -399 0
-396 -400 0
-397 -398 0
-397 -399 0
-397 -400 0
-398 -399 0
-398 -400 0
-399 -400 0
396 397 398 399 400 0
-401 -402 0
-401 -403 0
-401 -404 0
-401 -405 0
-402 -403 0
-402 -404 0
-402 -405 0
-403 -404 0
-403 -405 0
-404 -405 0
401 402 403 404 405 0
-406 -407 0
-406 -408 0
-406 -409 0
-406 -410 0
-407 -408 0
-407 -409 0
-407 -410 0
-408 -409 0
-408 -410 0
-409 -410 0
406 407 408 409 410 0
-411 -412 0
-411 -413 0
-411 -414 0
-411 -415 0
-412 -413 0
-412 -414 0
-412 -415 0
-413 -414 0
-413 -415 0
-414 -415 0
411 412 413 414 415 0
-416 -417 0
-416 -418 0
-416 -419 0
-416 -420 0
-417 -418 0
-417 -419 0
-417 -420 0
-418 -419 0
-418 -420 0
-419 -420 0
416 417 418 419 420 0
-421 -422 0
-421 -423 0
-421 -424 0
-421 -425 0
-422 -423 0
-422 -424 0
-422 -425 0
-423 -424 0
-423 -425 0
-424 -425 0
421 422 423 424 425 0
-426 -427 0
-426 -428 0
-426 -429 0
-426 -430 0
-427 -428 0
-427 -429 0
-427 -430 0
-428 -429 0
-428 -430 0
-429 -430 0
426 427 428 429 430 0
-431 -432 0
-431 -433 0
-431 -434 0
-431 -435 0
-432 -433 0
-432 -434 0
-432 -435 0
-433 -434 0
-433 -435 0
-434 -435 0
431 432 433 434 435 0
-436 -437 0
-436 -438 0
-436 -439 0
-436 -440 0
-437 -438 0
-437 -439 0
-437 -440 0
-438 -439 0
-438 -440 0
-439 -440 0
436 437 438 439 440 0
-441 -442 0
-441 -443 0
-441 -444 0
-441 -445 0
-442 -443 0
-442 -444 0
-442 -445 0
-443 -444 0
-443 -445 0
-444 -445 0
441 442 443 444 445 0
-446 -447 0
-446 -448 0
-446 -449 0
-446 -450 0
-447 -448 0
-447 -449 0
-447 -450 0
-448 -449 0
-448 -450 0
-449 -450 0
446 447 448 449 450 0
-451 -452 0
-451 -453 0
-451 -454 0
-451 -455 0
-452 -453 0
-452 -454 0
-452 -455 0
-453 -454 0
-453 -455 0
-454 -455 0
451 452 453 454 455 0
-456 -457 0
-456 -458 0
-456 -459 0
-456 -460 0
-457 -458 0
-457 -459 0
-457 -460 0
-458 -459 0
-458 -460 0
-459 -460 0
456 457 458 459 460 0
-461 -462 0
-461 -463 0
-461 -464 0
-461 -465 0
-462 -463 0
-462 -464 0
-462 -465 0
-463 -464 0
-463 -465 0
-464 -465 0
461 462 463 464 465 0
-466 -467 0
-466 -468 0
-466 -469 0
-466 -470 0
-467 -468 0
-467 -469 0
-467 -470 0
-468 -469 0
-468 -470 0
-469 -470 0
466 467 468 469 470 0
-471 -472 0
-471 -473 0
-471 -474 0
-471 -475 0
-472 -473 0
-472 -474 0
-472 -475 0
-473 -474 0
-473 -475 0
-474 -475 0
471 472 473 474 475 0
-476 -477 0
-476 -478 0
-476 -479 0
-476 -480 0
-477 -478 0
-477 -479 0
-477 -480 0
-478 -479 0
-478 -480 0
-479 -480 0
476 477 478 479 480 0
-481 -482 0
-481 -483 0
-481 -484 0
-481 -485 0
-482 -483 0
-482 -484 0
-482 -485 0
-483 -484 0
-483 -485 0
-484 -485 0
481 482 483 484 485 0
-486 -487 0
-486 -488 0
-486 -489 0
-486 -490 0
-487 -488 0
-487 -489 0
-487 -490 0
-488 -489 0
-488 -490 0
-489 -490 0
486 487 488 489 490 0
-491 -492 0
-491 -493 0
-491 -494 0
-491 -495 0
-492 -493 0
-492 -494 0
-492 -495 0
-493 -494 0
-493 -495 0
-494 -495 0
491 492 493 494 495 0
-496 -497 0
-496 -498 0
-496 -499 0
-496 -500 0
-497 -498 0
-497 -499 0
-497 -500 0
-498 -499 0
-498 -500 0
-499 -500 0
496 497 498 499 500 0
-16 -26 0
-17 -27 0
-18 -28 0
-19 -29 0
-20 -30 0
-31 -41 0
-32 -42 0
-33 -43 0
-34 -44 0
-35 -45 0
-46 -61 0
-47 -62 0
-48 -63 0
-49 -64 0
-50 -65 0
-61 -76 0
-62 -77 0
-63 -78 0
-64 -79 0
-65 -80 0
-86 -91 0
-87 -92 0
-88 -93 0
-89 -94 0
-90 -95 0
-86 -106 0
-87 -107 0
-88 -108 0
-89 -109 0
-90 -110 0
-101 -116 0
-102 -117 0
-103 -118 0
-104 -119 0
-105 -120 0
-106 -126 0
-107 -127 0
-108 -128 0
-109 -129 0
-110 -130 0
-111 -116 0
-112 -117 0
-113 -118 0
-114 -119 0
-115 -120 0
-116 -121 0
-117 -122 0
-118 -123 0
-119 -124 0
-120 -125 0
-121 -126 0
-122 -127 0
-123 -128 0
-124 -129 0
-125 -130 0
-136 -156 0
-137 -157 0
-138 -158 0
-139 -159 0
-140 -160 0
-151 -166 0
-152 -167 0
-153 -168 0
-154 -169 0
-155 -170 0
-156 -176 0
-157 -177 0
-158 -178 0
-159 -179 0
-160 -180 0
-186 -206 0
-187 -207 0
-188 -208 0
-189 -209 0
-190 -210 0
-196 -216 0
-197 -217 0
-198 -218 0
-199 -219 0
-200 -220 0
-246 -266 0
-247 -267 0
-248 -268 0
-249 -269 0
-250 -270 0
-251 -256 0
-252 -257 0
-253 -258 0
-254 -259 0
-255 -260 0
-261 -266 0
-262 -267 0
-263 -268 0
-264 -269 0
-265 -270 0
-301 -311 0
-302 -312 0
-303 -313 0
-304 -314 0
-305 -315 0
-321 -336 0
-322 -337 0
-323 -338 0
-324 -339 0
-325 -340 0
-321 -341 0
-322 -342 0
-323 -343 0
-324 -344 0
-325 -345 0
-356 -361 0
-357 -362 0
-358 -363 0
-359 -364 0
-360 -365 0
-386 -391 0
-387 -392 0
-388 -393 0
-389 -394 0
-390 -395 0
-391 -401 0
-392 -402 0
-393 -403 0
-394 -404 0
-395 -405 0
-396 -411 0
-397 -412 0
-398 -413 0
-399 -414 0
-400 -415 0
-401 -411 0
-402 -412 0
-403 -413 0
-404 -414 0
-405 -415 0
-416 -436 0
-417 -437 0
-418 -438 0
-419 -439 0
-420 -440 0
-426 -436 0
-427 -437 0
-428 -438 0
-429 -439 0
-430 -440 0
-426 -441 0
-427 -442 0
-428 -443 0
-429 -444 0
-430 -445 0
-431 -436 0
-432 -437 0
-433 -438 0
-434 -439 0
-435 -440 0
-436 -441 0
-437 -442 0
-438 -443 0
-439 -444 0
-440 -445 0
-441 -451 0
-442 -452 0
-443 -453 0
-444 -454 0
-445 -455 0
-451 -456 0
-452 -457 0
-453 -458 0
-454 -459 0
-455 -460 0
-451 -466 0
-452 -467 0
-453 -468 0
-454 -469 0
-455 -470 0
-461 -476 0
-462 -477 0
-463 -478 0
-464 -479 0
-465 -480 0
-461 -481 0
-462 -482 0
-463 -483 0
-464 -484 0
-465 -485 0
-471 -491 0
-472 -492 0
-473 -493 0
-474 -494 0
-475 -495 0
-1 -486 0
-2 -487 0
-3 -488 0
-4 -489 0
-5 -490 0
-1 -31 0
-2 -32 0
-3 -33 0
-4 -34 0
-5 -35 0
-1 -221 0
-2 -222 0
-3 -223 0
-4 -224 0
-5 -225 0
-1 -231 0
-2 -232 0
-3 -233 0
-4 -234 0
-5 -235 0
-1 -266 0
-2 -267 0
-3 -268 0
-4 -269 0
-5 -270 0
-1 -391 0
-2 -392 0
-3 -393 0
-4 -394 0
-5 -395 0
-1 -476 0
-2 -477 0
-3 -478 0
-4 -479 0
-5 -480 0
-6 -46 0
-7 -47 0
-8 -48 0
-9 -49 0
-10 -50 0
-6 -96 0
-7 -97 0
-8 -98 0
-9 -99 0
-10 -100 0
-6 -131 0
-7 -132 0
-8 -133 0
-9 -134 0
-10 -135 0
-6 -151 0
-7 -152 0
-8 -153 0
-9 -154 0
-10 -155 0
-6 -256 0
-7 -257 0
-8 -258 0
-9 -259 0
-10 -260 0
-6 -266 0
-7 -267 0
-8 -268 0
-9 -269 0
-10 -270 0
-6 -286 0
-7 -287 0
-8 -288 0
-9 -289 0
-10 -290 0
-6 -306 0
-7 -307 0
-8 -308 0
-9 -309 0
-10 -310 0
-6 -411 0
-7 -412 0
-8 -413 0
-9 -414 0
-10 -415 0
-11 -96 0
-12 -97 0
-13 -98 0
-14 -99 0
-15 -100 0
-11 -121 0
-12 -122 0
-13 -123 0
-14 -124 0
-15 -125 0
-11 -181 0
-12 -182 0
-13 -183 0
-14 -184 0
-15 -185 0
-11 -316 0
-12 -317 0
-13 -318 0
-14 -319 0
-15 -320 0
-11 -361 0
-12 -362 0
-13 -363 0
-14 -364 0
-15 -365 0
-11 -411 0
-12 -412 0
-13 -413 0
-14 -414 0
-15 -415 0
-16 -81 0
-17 -82 0
-18 -83 0
-19 -84 0
-20 -85 0
-16 -111 0
-17 -112 0
-18 -113 0
-19 -114 0
-20 -115 0
-16 -126 0
-17 -127 0
-18 -128 0
-19 -129 0
-20 -130 0
-16 -291 0
-17 -292 0
-18 -293 0
-19 -294 0
-20 -295 0
-16 -361 0
-17 -362 0
-18 -363 0
-19 -364 0
-20 -365 0
-16 -396 0
-17 -397 0
-18 -398 0
-19 -399 0
-20 -400 0
-16 -411 0
-17 -412 0
-18 -413 0
-19 -414 0
-20 -415 0
-21 -71 0
-22 -72 0
-23 -73 0
-24 -74 0
-25 -75 0
-21 -96 0
-22 -97 0
-23 -98 0
-24 -99 0
-25 -100 0
-21 -116 0
-22 -117 0
-23 -118 0
-24 -119 0
-25 -120 0
-21 -186 0
-22 -187 0
-23 -188 0
-24 -189 0
-25 -190 0
-21 -236 0
-22 -237 0
-23 -238 0
-24 -239 0
-25 -240 0
-21 -246 0
-22 -247 0
-23 -248 0
-24 -249 0
-25 -250 0
-21 -266 0
-22 -267 0
-23 -268 0
-24 -269 0
-25 -270 0
-21 -421 0
-22 -422 0
-23 -423 0
-24 -424 0
-25 -425 0
-26 -51 0
-27 -52 0
-28 -53 0
-29 -54 0
-30 -55 0
-26 -61 0
-27 -62 0
-28 -63 0
-29 -64 0
-30 -65 0
-26 -71 0
-27 -72 0
-28 -73 0
-29 -74 0
-30 -75 0
-26 -76 0
-27 -77 0
-28 -78 0
-29 -79 0
-30 -80 0
-26 -96 0
-27 -97 0
-28 -98 0
-29 -99 0
-30 -100 0
-26 -176 0
-27 -177 0
-28 -178 0
-29 -179 0
-30 -180 0
-26 -201 0
-27 -202 0
-28 -203 0
-29 -204 0
-30 -205 0
-26 -261 0
-27 -262 0
-28 -263 0
-29 -264 0
-30 -265 0
-26 -336 0
-27 -337 0
-28 -338 0
-29 -339 0
-30 -340 0
-26 -361 0
-27 -362 0
-28 -363 0
-29 -364 0
-30 -365 0
-26 -376 0
-27 -377 0
-28 -378 0
-29 -379 0
-30 -380 0
-26 -381 0
-27 -382 0
-28 -383 0
-29 -384 0
-30 -385 0
-26 -411 0
-27 -412 0
-28 -413 0
-29 -414 0
-30 -415 0
-26 -421 0
-27 -422 0
-28 -423 0
-29 -424 0
-30 -425 0
-26 -471 0
-27 -472 0
-28 -473 0
-29 -474 0
-30 -475 0
-31 -86 0
-32 -87 0
-33 -88 0
-34 -89 0
-35 -90 0
-31 -146 0
-32 -147 0
-33 -148 0
-34 -149 0
-35 -150 0
-31 -261 0
-32 -262 0
-33 -263 0
-34 -264 0
-35 -265 0
-31 -321 0
-32 -322 0
-33 -323 0
-34 -324 0
-35 -325 0
-36 -86 0
-37 -87 0
-38 -88 0
-39 -89 0
-40 -90 0
-36 -146 0
-37 -147 0
-38 -148 0
-39 -149 0
-40 -150 0
-36 -241 0
-37 -242 0
-38 -243 0
-39 -244 0
-40 -245 0
-36 -251 0
-37 -252 0
-38 -253 0
-39 -254 0
-40 -255 0
-36 -451 0
-37 -452 0
-38 -453 0
-39 -454 0
-40 -455 0
-36 -481 0
-37 -482 0
-38 -483 0
-39 -484 0
-40 -485 0
-41 -136 0
-42 -137 0
-43 -138 0
-44 -139 0
-45 -140 0
-41 -166 0
-42 -167 0
-43 -168 0
-44 -169 0
-45 -170 0
-41 -201 0
-42 -202 0
-43 -203 0
-44 -204 0
-45 -205 0
-41 -256 0
-42 -257 0
-43 -258 0
-44 -259 0
-45 -260 0
-41 -356 0
-42 -357 0
-43 -358 0
-44 -359 0
-45 -360 0
-46 -241 0
-47 -242 0
-48 -243 0
-49 -244 0
-50 -245 0
-46 -361 0
-47 -362 0
-48 -363 0
-49 -364 0
-50 -365 0
-46 -436 0
-47 -437 0
-48 -438 0
-49 -439 0
-50 -440 0
-46 -476 0
-47 -477 0
-48 -478 0
-49 -479 0
-50 -480 0
-51 -81 0
-52 -82 0
-53 -83 0
-54 -84 0
-55 -85 0
-51 -151 0
-52 -152 0
-53 -153 0
-54 -154 0
-55 -155 0
-51 -296 0
-52 -297 0
-53 -298 0
-54 -299 0
-55 -300 0
-51 -321 0
-52 -322 0
-53 -323 0
-54 -324 0
-55 -325 0
-51 -356 0
-52 -357 0
-53 -358 0
-54 -359 0
-55 -360 0
-51 -426 0
-52 -427 0
-53 -428 0
-54 -429 0
-55 -430 0
-51 -476 0
-52 -477 0
-53 -478 0
-54 -479 0
-55 -480 0
-56 -86 0
-57 -87 0
-58 -88 0
-59 -89 0
-60 -90 0
-56 -136 0
-57 -137 0
-58 -138 0
-59 -139 0
-60 -140 0
-56 -161 0
-57 -162 0
-58 -163 0
-59 -164 0
-60 -165 0
-56 -271 0
-57 -272 0
-58 -273 0
-59 -274 0
-60 -275 0
-56 -321 0
-57 -322 0
-58 -323 0
-59 -324 0
-60 -325 0
-56 -331 0
-57 -332 0
-58 -333 0
-59 -334 0
-60 -335 0
-56 -336 0
-57 -337 0
-58 -338 0
-59 -339 0
-60 -340 0
-56 -421 0
-57 -422 0
-58 -423 0
-59 -424 0
-60 -425 0
-56 -471 0
-57 -472 0
-58 -473 0
-59 -474 0
-60 -475 0
-56 -496 0
-57 -497 0
-58 -498 0
-59 -499 0
-60 -500 0
-61 -96 0
-62 -97 0
-63 -98 0
-64 -99 0
-65 -100 0
-61 -171 0
-62 -172 0
-63 -173 0
-64 -174 0
-65 -175 0
-61 -181 0
-62 -182 0
-63 -183 0
-64 -184 0
-65 -185 0
-61 -321 0
-62 -322 0
-63 -323 0
-64 -324 0
-65 -325 0
-61 -396 0
-62 -397 0
-63 -398 0
-64 -399 0
-65 -400 0
-61 -436 0
-62 -437 0
-63 -438 0
-64 -439 0
-65 -440 0
-61 -446 0
-62 -447 0
-63 -448 0
-64 -449 0
-65 -450 0
-61 -461 0
-62 -462 0
-63 -463 0
-64 -464 0
-65 -465 0
-66 -176 0
-67 -177 0
-68 -178 0
-69 -179 0
-70 -180 0
-66 -211 0
-67 -212 0
-68 -213 0
-69 -214 0
-70 -215 0
-66 -241 0
-67 -242 0
-68 -243 0
-69 -244 0
-70 -245 0
-66 -301 0
-67 -302 0
-68 -303 0
-69 -304 0
-70 -305 0
-66 -376 0
-67 -377 0
-68 -378 0
-69 -379 0
-70 -380 0
-66 -461 0
-67 -462 0
-68 -463 0
-69 -464 0
-70 -465 0
-71 -186 0
-72 -187 0
-73 -188 0
-74 -189 0
-75 -190 0
-71 -261 0
-72 -262 0
-73 -263 0
-74 -264 0
-75 -265 0
-71 -311 0
-72 -312 0
-73 -313 0
-74 -314 0
-75 -315 0
-71 -326 0
-72 -327 0
-73 -328 0
-74 -329 0
-75 -330 0
-71 -441 0
-72 -442 0
-73 -443 0
-74 -444 0
-75 -445 0
-76 -101 0
-77 -102 0
-78 -103 0
-79 -104 0
-80 -105 0
-76 -186 0
-77 -187 0
-78 -188 0
-79 -189 0
-80 -190 0
-76 -336 0
-77 -337 0
-78 -338 0
-79 -339 0
-80 -340 0
-76 -421 0
-77 -422 0
-78 -423 0
-79 -424 0
-80 -425 0
-76 -436 0
-77 -437 0
-78 -438 0
-79 -439 0
-80 -440 0
-76 -451 0
-77 -452 0
-78 -453 0
-79 -454 0
-80 -455 0
-76 -461 0
-77 -462 0
-78 -463 0
-79 -464 0
-80 -465 0
-81 -151 0
-82 -152 0
-83 -153 0
-84 -154 0
-85 -155 0
-81 -186 0
-82 -187 0
-83 -188 0
-84 -189 0
-85 -190 0
-81 -241 0
-82 -242 0
-83 -243 0
-84 -244 0
-85 -245 0
-81 -331 0
-82 -332 0
-83 -333 0
-84 -334 0
-85 -335 0
-81 -366 0
-82 -367 0
-83 -368 0
-84 -369 0
-85 -370 0
-81 -406 0
-82 -407 0
-83 -408 0
-84 -409 0
-85 -410 0
-81 -461 0
-82 -462 0
-83 -463 0
-84 -464 0
-85 -465 0
-86 -191 0
-87 -192 0
-88 -193 0
-89 -194 0
-90 -195 0
-86 -376 0
-87 -377 0
-88 -378 0
-89 -379 0
-90 -380 0
-86 -381 0
-87 -382 0
-88 -383 0
-89 -384 0
-90 -385 0
-86 -406 0
-87 -407 0
-88 -408 0
-89 -409 0
-90 -410 0
-86 -416 0
-87 -417 0
-88 -418 0
-89 -419 0
-90 -420 0
-86 -446 0
-87 -447 0
-88 -448 0
-89 -449 0
-90 -450 0
-86 -486 0
-87 -487 0
-88 -488 0
-89 -489 0
-90 -490 0
-91 -186 0
-92 -187 0
-93 -188 0
-94 -189 0
-95 -190 0
-91 -311 0
-92 -312 0
-93 -313 0
-94 -314 0
-95 -315 0
-91 -386 0
-92 -387 0
-93 -388 0
-94 -389 0
-95 -390 0
-91 -426 0
-92 -427 0
-93 -428 0
-94 -429 0
-95 -430 0
-96 -121 0
-97 -122 0
-98 -123 0
-99 -124 0
-100 -125 0
-96 -211 0
-97 -212 0
-98 -213 0
-99 -214 0
-100 -215 0
-96 -391 0
-97 -392 0
-98 -393 0
-99 -394 0
-100 -395 0
-96 -431 0
-97 -432 0
-98 -433 0
-99 -434 0
-100 -435 0
-96 -456 0
-97 -457 0
-98 -458 0
-99 -459 0
-100 -460 0
-101 -126 0
-102 -127 0
-103 -128 0
-104 -129 0
-105 -130 0
-101 -196 0
-102 -197 0
-103 -198 0
-104 -199 0
-105 -200 0
-101 -311 0
-102 -312 0
-103 -313 0
-104 -314 0
-105 -315 0
-101 -316 0
-102 -317 0
-103 -318 0
-104 -319 0
-105 -320 0
-101 -406 0
-102 -407 0
-103 -408 0
-104 -409 0
-105 -410 0
-101 -416 0
-102 -417 0
-103 -418 0
-104 -419 0
-105 -420 0
-106 -166 0
-107 -167 0
-108 -168 0
-109 -169 0
-110 -170 0
-106 -261 0
-107 -262 0
-108 -263 0
-109 -264 0
-110 -265 0
-106 -306 0
-107 -307 0
-108 -308 0
-109 -309 0
-110 -310 0
-106 -346 0
-107 -347 0
-108 -348 0
-109 -349 0
-110 -350 0
-106 -361 0
-107 -362 0
-108 -363 0
-109 -364 0
-110 -365 0
-106 -381 0
-107 -382 0
-108 -383 0
-109 -384 0
-110 -385 0
-106 -416 0
-107 -417 0
-108 -418 0
-109 -419 0
-110 -420 0
-106 -436 0
-107 -437 0
-108 -438 0
-109 -439 0
-110 -440 0
-106 -451 0
-107 -452 0
-108 -453 0
-109 -454 0
-110 -455 0
-106 -476 0
-107 -477 0
-108 -478 0
-109 -479 0
-110 -480 0
-106 -496 0
-107 -497 0
-108 -498 0
-109 -499 0
-110 -500 0
-111 -201 0
-112 -202 0
-113 -203 0
-114 -204 0
-115 -205 0
-111 -291 0
-112 -292 0
-113 -293 0
-114 -294 0
-115 -295 0
-111 -306 0
-112 -307 0
-113 -308 0
-114 -309 0
-115 -310 0
-111 -331 0
-112 -332 0
-113 -333 0
-114 -334 0
-115 -335 0
-111 -361 0
-112 -362 0
-113 -363 0
-114 -364 0
-115 -365 0
-111 -461 0
-112 -462 0
-113 -463 0
-114 -464 0
-115 -465 0
-111 -471 0
-112 -472 0
-113 -473 0
-114 -474 0
-115 -475 0
-111 -476 0
-112 -477 0
-113 -478 0
-114 -479 0
-115 -480 0
-111 -496 0
-112 -497 0
-113 -498 0
-114 -499 0
-115 -500 0
-116 -426 0
-117 -427 0
-118 -428 0
-119 -429 0
-120 -430 0
-116 -446 0
-117 -447 0
-118 -448 0
-119 -449 0
-120 -450 0
-116 -471 0
-117 -472 0
-118 -473 0
-119 -474 0
-120 -475 0
-121 -221 0
-122 -222 0
-123 -223 0
-124 -224 0
-125 -225 0
-121 -266 0
-122 -267 0
-123 -268 0
-124 -269 0
-125 -270 0
-121 -446 0
-122 -447 0
-123 -448 0
-124 -449 0
-125 -450 0
-121 -451 0
-122 -452 0
-123 -453 0
-124 -454 0
-125 -455 0
-126 -166 0
-127 -167 0
-128 -168 0
-129 -169 0
-130 -170 0
-126 -206 0
-127 -207 0
-128 -208 0
-129 -209 0
-130 -210 0
-126 -311 0
-127 -312 0
-128 -313 0
-129 -314 0
-130 -315 0
-126 -451 0
-127 -452 0
-128 -453 0
-129 -454 0
-130 -455 0
-126 -456 0
-127 -457 0
-128 -458 0
-129 -459 0
-130 -460 0
-126 -471 0
-127 -472 0
-128 -473 0
-129 -474 0
-130 -475 0
-126 -481 0
-127 -482 0
-128 -483 0
-129 -484 0
-130 -485 0
-131 -321 0
-132 -322 0
-133 -323 0
-134 -324 0
-135 -325 0
-136 -181 0
-137 -182 0
-138 -183 0
-139 -184 0
-140 -185 0
-136 -216 0
-137 -217 0
-138 -218 0
-139 -219 0
-140 -220 0
-136 -351 0
-137 -352 0
-138 -353 0
-139 -354 0
-140 -355 0
-136 -471 0
-137 -472 0
-138 -473 0
-139 -474 0
-140 -475 0
-136 -481 0
-137 -482 0
-138 -483 0
-139 -484 0
-140 -485 0
-141 -226 0
-142 -227 0
-143 -228 0
-144 -229 0
-145 -230 0
-141 -246 0
-142 -247 0
-143 -248 0
-144 -249 0
-145 -250 0
-141 -291 0
-142 -292 0
-143 -293 0
-144 -294 0
-145 -295 0
-141 -351 0
-142 -352 0
-143 -353 0
-144 -354 0
-145 -355 0
-141 -456 0
-142 -457 0
-143 -458 0
-144 -459 0
-145 -460 0
-141 -476 0
-142 -477 0
-143 -478 0
-144 -479 0
-145 -480 0
-146 -181 0
-147 -182 0
-148 -183 0
-149 -184 0
-150 -185 0
-146 -201 0
-147 -202 0
-148 -203 0
-149 -204 0
-150 -205 0
-146 -276 0
-147 -277 0
-148 -278 0
-149 -279 0
-150 -280 0
-146 -306 0
-147 -307 0
-148 -308 0
-149 -309 0
-150 -310 0
-146 -356 0
-147 -357 0
-148 -358 0
-149 -359 0
-150 -360 0
-146 -406 0
-147 -407 0
-148 -408 0
-149 -409 0
-150 -410 0
-146 -421 0
-147 -422 0
-148 -423 0
-149 -424 0
-150 -425 0
-146 -471 0
-147 -472 0
-148 -473 0
-149 -474 0
-150 -475 0
-151 -261 0
-152 -262 0
-153 -263 0
-154 -264 0
-155 -265 0
-151 -291 0
-152 -292 0
-153 -293 0
-154 -294 0
-155 -295 0
-151 -341 0
-152 -342 0
-153 -343 0
-154 -344 0
-155 -345 0
-151 -451 0
-152 -452 0
-153 -453 0
-154 -454 0
-155 -455 0
-156 -406 0
-157 -407 0
-158 -408 0
-159 -409 0
-160 -410 0
-156 -426 0
-157 -427 0
-158 -428 0
-159 -429 0
-160 -430 0
-156 -451 0
-157 -452 0
-158 -453 0
-159 -454 0
-160 -455 0
-156 -466 0
-157 -467 0
-158 -468 0
-159 -469 0
-160 -470 0
-156 -476 0
-157 -477 0
-158 -478 0
-159 -479 0
-160 -480 0
-161 -216 0
-162 -217 0
-163 -218 0
-164 -219 0
-165 -220 0
-161 -351 0
-162 -352 0
-163 -353 0
-164 -354 0
-165 -355 0
-166 -281 0
-167 -282 0
-168 -283 0
-169 -284 0
-170 -285 0
-166 -346 0
-167 -347 0
-168 -348 0
-169 -349 0
-170 -350 0
-166 -386 0
-167 -387 0
-168 -388 0
-169 -389 0
-170 -390 0
-166 -396 0
-167 -397 0
-168 -398 0
-169 -399 0
-170 -400 0
-171 -231 0
-172 -232 0
-173 -233 0
-174 -234 0
-175 -235 0
-171 -266 0
-172 -267 0
-173 -268 0
-174 -269 0
-175 -270 0
-171 -301 0
-172 -302 0
-173 -303 0
-174 -304 0
-175 -305 0
-176 -216 0
-177 -217 0
-178 -218 0
-179 -219 0
-180 -220 0
-176 -246 0
-177 -247 0
-178 -248 0
-179 -249 0
-180 -250 0
-176 -301 0
-177 -302 0
-178 -303 0
-179 -304 0
-180 -305 0
-176 -321 0
-177 -322 0
-178 -323 0
-179 -324 0
-180 -325 0
-176 -341 0
-177 -342 0
-178 -343 0
-179 -344 0
-180 -345 0
-176 -371 0
-177 -372 0
-178 -373 0
-179 -374 0
-180 -375 0
-176 -461 0
-177 -462 0
-178 -463 0
-179 -464 0
-180 -465 0
-176 -471 0
-177 -472 0
-178 -473 0
-179 -474 0
-180 -475 0
-181 -216 0
-182 -217 0
-183 -218 0
-184 -219 0
-185 -220 0
-181 -426 0
-182 -427 0
-183 -428 0
-184 -429 0
-185 -430 0
-181 -441 0
-182 -442 0
-183 -443 0
-184 -444 0
-185 -445 0
-186 -221 0
-187 -222 0
-188 -223 0
-189 -224 0
-190 -225 0
-186 -311 0
-187 -312 0
-188 -313 0
-189 -314 0
-190 -315 0
-186 -361 0
-187 -362 0
-188 -363 0
-189 -364 0
-190 -365 0
-186 -391 0
-187 -392 0
-188 -393 0
-189 -394 0
-190 -395 0
-186 -461 0
-187 -462 0
-188 -463 0
-189 -464 0
-190 -465 0
-186 -481 0
-187 -482 0
-188 -483 0
-189 -484 0
-190 -485 0
-191 -286 0
-192 -287 0
-193 -288 0
-194 -289 0
-195 -290 0
-191 -321 0
-192 -322 0
-193 -323 0
-194 -324 0
-195 -325 0
-191 -396 0
-192 -397 0
-193 -398 0
-194 -399 0
-195 -400 0
-191 -401 0
-192 -402 0
-193 -403 0
-194 -404 0
-195 -405 0
-191 -461 0
-192 -462 0
-193 -463 0
-194 -464 0
-195 -465 0
-196 -266 0
-197 -267 0
-198 -268 0
-199 -269 0
-200 -270 0
-196 -271 0
-197 -272 0
-198 -273 0
-199 -274 0
-200 -275 0
-196 -291 0
-197 -292 0
-198 -293 0
-199 -294 0
-200 -295 0
-196 -346 0
-197 -347 0
-198 -348 0
-199 -349 0
-200 -350 0
-196 -431 0
-197 -432 0
-198 -433 0
-199 -434 0
-200 -435 0
-196 -461 0
-197 -462 0
-198 -463 0
-199 -464 0
-200 -465 0
-196 -476 0
-197 -477 0
-198 -478 0
-199 -479 0
-200 -480 0
-196 -486 0
-197 -487 0
-198 -488 0
-199 -489 0
-200 -490 0
-201 -231 0
-202 -232 0
-203 -233 0
-204 -234 0
-205 -235 0
-201 -296 0
-202 -297 0
-203 -298 0
-204 -299 0
-205 -300 0
-201 -386 0
-202 -387 0
-203 -388 0
-204 -389 0
-205 -390 0
-201 -391 0
-202 -392 0
-203 -393 0
-204 -394 0
-205 -395 0
-206 -236 0
-207 -237 0
-208 -238 0
-209 -239 0
-210 -240 0
-206 -256 0
-207 -257 0
-208 -258 0
-209 -259 0
-210 -260 0
-206 -396 0
-207 -397 0
-208 -398 0
-209 -399 0
-210 -400 0
-211 -331 0
-212 -332 0
-213 -333 0
-214 -334 0
-215 -335 0
-211 -386 0
-212 -387 0
-213 -388 0
-214 -389 0
-215 -390 0
-211 -416 0
-212 -417 0
-213 -418 0
-214 -419 0
-215 -420 0
-216 -351 0
-217 -352 0
-218 -353 0
-219 -354 0
-220 -355 0
-216 -381 0
-217 -382 0
-218 -383 0
-219 -384 0
-220 -385 0
-216 -386 0
-217 -387 0
-218 -388 0
-219 -389 0
-220 -390 0
-221 -296 0
-222 -297 0
-223 -298 0
-224 -299 0
-225 -300 0
-221 -376 0
-222 -377 0
-223 -378 0
-224 -379 0
-225 -380 0
-221 -391 0
-222 -392 0
-223 -393 0
-224 -394 0
-225 -395 0
-226 -296 0
-227 -297 0
-228 -298 0
-229 -299 0
-230 -300 0
-226 -376 0
-227 -377 0
-228 -378 0
-229 -379 0
-230 -380 0
-226 -416 0
-227 -417 0
-228 -418 0
-229 -419 0
-230 -420 0
-231 -256 0
-232 -257 0
-233 -258 0
-234 -259 0
-235 -260 0
-231 -371 0
-232 -372 0
-233 -373 0
-234 -374 0
-235 -375 0
-236 -271 0
-237 -272 0
-238 -273 0
-239 -274 0
-240 -275 0
-236 -306 0
-237 -307 0
-238 -308 0
-239 -309 0
-240 -310 0
-236 -346 0
-237 -347 0
-238 -348 0
-239 -349 0
-240 -350 0
-236 -471 0
-237 -472 0
-238 -473 0
-239 -474 0
-240 -475 0
-241 -271 0
-242 -272 0
-243 -273 0
-244 -274 0
-245 -275 0
-241 -351 0
-242 -352 0
-243 -353 0
-244 -354 0
-245 -355 0
-241 -401 0
-242 -402 0
-243 -403 0
-244 -404 0
-245 -405 0
-241 -446 0
-242 -447 0
-243 -448 0
-244 -449 0
-245 -450 0
-246 -276 0
-247 -277 0
-248 -278 0
-249 -279 0
-250 -280 0
-246 -331 0
-247 -332 0
-248 -333 0
-249 -334 0
-250 -335 0
-246 -396 0
-247 -397 0
-248 -398 0
-249 -399 0
-250 -400 0
-246 -451 0
-247 -452 0
-248 -453 0
-249 -454 0
-250 -455 0
-246 -456 0
-247 -457 0
-248 -458 0
-249 -459 0
-250 -460 0
-246 -466 0
-247 -467 0
-248 -468 0
-249 -469 0
-250 -470 0
-246 -486 0
-247 -487 0
-248 -488 0
-249 -489 0
-250 -490 0
-251 -296 0
-252 -297 0
-253 -298 0
-254 -299 0
-255 -300 0
-251 -356 0
-252 -357 0
-253 -358 0
-254 -359 0
-255 -360 0
-251 -406 0
-252 -407 0
-253 -408 0
-254 -409 0
-255 -410 0
-251 -476 0
-252 -477 0
-253 -478 0
-254 -479 0
-255 -480 0
-251 -486 0
-252 -487 0
-253 -488 0
-254 -489 0
-255 -490 0
-256 -311 0
-257 -312 0
-258 -313 0
-259 -314 0
-260 -315 0
-256 -341 0
-257 -342 0
-258 -343 0
-259 -344 0
-260 -345 0
-256 -351 0
-257 -352 0
-258 -353 0
-259 -354 0
-260 -355 0
-256 -366 0
-257 -367 0
-258 -368 0
-259 -369 0
-260 -370 0
-256 -376 0
-257 -377 0
-258 -378 0
-259 -379 0
-260 -380 0
-256 -386 0
-257 -387 0
-258 -388 0
-259 -389 0
-260 -390 0
-256 -481 0
-257 -482 0
-258 -483 0
-259 -484 0
-260 -485 0
-261 -286 0
-262 -287 0
-263 -288 0
-264 -289 0
-265 -290 0
-261 -306 0
-262 -307 0
-263 -308 0
-264 -309 0
-265 -310 0
-261 -336 0
-262 -337 0
-263 -338 0
-264 -339 0
-265 -340 0
-261 -396 0
-262 -397 0
-263 -398 0
-264 -399 0
-265 -400 0
-261 -406 0
-262 -407 0
-263 -408 0
-264 -409 0
-265 -410 0
-266 -346 0
-267 -347 0
-268 -348 0
-269 -349 0
-270 -350 0
-266 -381 0
-267 -382 0
-268 -383 0
-269 -384 0
-270 -385 0
-266 -416 0
-267 -417 0
-268 -418 0
-269 -419 0
-270 -420 0
-266 -446 0
-267 -447 0
-268 -448 0
-269 -449 0
-270 -450 0
-271 -331 0
-272 -332 0
-273 -333 0
-274 -334 0
-275 -335 0
-271 -411 0
-272 -412 0
-273 -413 0
-274 -414 0
-275 -415 0
-271 -476 0
-272 -477 0
-273 -478 0
-274 -479 0
-275 -480 0
-276 -361 0
-277 -362 0
-278 -363 0
-279 -364 0
-280 -365 0
-276 -376 0
-277 -377 0
-278 -378 0
-279 -379 0
-280 -380 0
-276 -381 0
-277 -382 0
-278 -383 0
-279 -384 0
-280 -385 0
-276 -401 0
-277 -402 0
-278 -403 0
-279 -404 0
-280 -405 0
-276 -486 0
-277 -487 0
-278 -488 0
-279 -489 0
-280 -490 0
-281 -321 0
-282 -322 0
-283 -323 0
-284 -324 0
-285 -325 0
-281 -441 0
-282 -442 0
-283 -443 0
-284 -444 0
-285 -445 0
-286 -316 0
-287 -317 0
-288 -318 0
-289 -319 0
-290 -320 0
-286 -321 0
-287 -322 0
-288 -323 0
-289 -324 0
-290 -325 0
-286 -446 0
-287 -447 0
-288 -448 0
-289 -449 0
-290 -450 0
-286 -486 0
-287 -487 0
-288 -488 0
-289 -489 0
-290 -490 0
-291 -371 0
-292 -372 0
-293 -373 0
-294 -374 0
-295 -375 0
-291 -396 0
-292 -397 0
-293 -398 0
-294 -399 0
-295 -400 0
-296 -361 0
-297 -362 0
-298 -363 0
-299 -364 0
-300 -365 0
-296 -436 0
-297 -437 0
-298 -438 0
-299 -439 0
-300 -440 0
-296 -471 0
-297 -472 0
-298 -473 0
-299 -474 0
-300 -475 0
-301 -456 0
-302 -457 0
-303 -458 0
-304 -459 0
-305 -460 0
-306 -416 0
-307 -417 0
-308 -418 0
-309 -419 0
-310 -420 0
-311 -341 0
-312 -342 0
-313 -343 0
-314 -344 0
-315 -345 0
-311 -386 0
-312 -387 0
-313 -388 0
-314 -389 0
-315 -390 0
-311 -481 0
-312 -482 0
-313 -483 0
-314 -484 0
-315 -485 0
-316 -396 0
-317 -397 0
-318 -398 0
-319 -399 0
-320 -400 0
-316 -406 0
-317 -407 0
-318 -408 0
-319 -409 0
-320 -410 0
-321 -361 0
-322 -362 0
-323 -363 0
-324 -364 0
-325 -365 0
-321 -416 0
-322 -417 0
-323 -418 0
-324 -419 0
-325 -420 0
-321 -456 0
-322 -457 0
-323 -458 0
-324 -459 0
-325 -460 0
-321 -476 0
-322 -477 0
-323 -478 0
-324 -479 0
-325 -480 0
-321 -486 0
-322 -487 0
-323 -488 0
-324 -489 0
-325 -490 0
-326 -351 0
-327 -352 0
-328 -353 0
-329 -354 0
-330 -355 0
-326 -416 0
-327 -417 0
-328 -418 0
-329 -419 0
-330 -420 0
-326 -431 0
-327 -432 0
-328 -433 0
-329 -434 0
-330 -435 0
-331 -486 0
-332 -487 0
-333 -488 0
-334 -489 0
-335 -490 0
-336 -456 0
-337 -457 0
-338 -458 0
-339 -459 0
-340 -460 0
-341 -376 0
-342 -377 0
-343 -378 0
-344 -379 0
-345 -380 0
-341 -406 0
-342 -407 0
-343 -408 0
-344 -409 0
-345 -410 0
-341 -456 0
-342 -457 0
-343 -458 0
-344 -459 0
-345 -460 0
-346 -376 0
-347 -377 0
-348 -378 0
-349 -379 0
-350 -380 0
-351 -401 0
-352 -402 0
-353 -403 0
-354 -404 0
-355 -405 0
-351 -416 0
-352 -417 0
-353 -418 0
-354 -419 0
-355 -420 0
-351 -471 0
-352 -472 0
-353 -473 0
-354 -474 0
-355 -475 0
-351 -481 0
-352 -482 0
-353 -483 0
-354 -484 0
-355 -485 0
-356 -426 0
-357 -427 0
-358 -428 0
-359 -429 0
-360 -430 0
-361 -411 0
-362 -412 0
-363 -413 0
-364 -414 0
-365 -415 0
-366 -431 0
-367 -432 0
-368 -433 0
-369 -434 0
-370 -435 0
-391 -436 0
-392 -437 0
-393 -438 0
-394 -439 0
-395 -440 0
-391 -471 0
-392 -472 0
-393 -473 0
-394 -474 0
-395 -475 0
-391 -486 0
-392 -487 0
-393 -488 0
-394 -489 0
-395 -490 0
-396 -426 0
-397 -427 0
-398 -428 0
-399 -429 0
-400 -430 0
-396 -461 0
-397 -462 0
-398 -463 0
-399 -464 0
-400 -465 0
-401 -436 0
-402 -437 0
-403 -438 0
-404 -439 0
-405 -440 0
-411 -456 0
-412 -457 0
-413 -458 0
-414 -459 0
-415 -460 0
-416 -441 0
-417 -442 0
-418 -443 0
-419 -444 0
-420 -445 0
-416 -476 0
-417 -477 0
-418 -478 0
-419 -479 0
-420 -480 0
-421 -476 0
-422 -477 0
-423 -478 0
-424 -479 0
-425 -480 0
-426 -496 0
-427 -497 0
-428 -498 0
-429 -499 0
-430 -500 0
-441 -486 0
-442 -487 0
-443 -488 0
-444 -489 0
-445 -490 0
-456 -481 0
-457 -482 0
-458 -483 0
-459 -484 0
-460 -485 0
